************************************************************************
file with basedata            : cr563_.bas
initial value random generator: 1770611381
************************************************************************
projects                      :  1
jobs (incl. supersource/sink ):  18
horizon                       :  116
RESOURCES
  - renewable                 :  5   R
  - nonrenewable              :  2   N
  - doubly constrained        :  0   D
************************************************************************
PROJECT INFORMATION:
pronr.  #jobs rel.date duedate tardcost  MPM-Time
    1     16      0       26        0       26
************************************************************************
PRECEDENCE RELATIONS:
jobnr.    #modes  #successors   successors
   1        1          3           2   3   4
   2        3          3           5  12  17
   3        3          3           7  12  17
   4        3          3           8  12  13
   5        3          3           6   8   9
   6        3          3           7  10  11
   7        3          2          13  16
   8        3          1          15
   9        3          2          10  11
  10        3          2          15  16
  11        3          2          13  14
  12        3          1          14
  13        3          1          15
  14        3          1          16
  15        3          1          18
  16        3          1          18
  17        3          1          18
  18        1          0        
************************************************************************
REQUESTS/DURATIONS:
jobnr. mode duration  R 1  R 2  R 3  R 4  R 5  N 1  N 2
------------------------------------------------------------------------
  1      1     0       0    0    0    0    0    0    0
  2      1     3       5    7    7    9   10    8    4
         2     3       5    5    8    8    6    8    4
         3     9       2    4    6    6    4    7    4
  3      1     1       4    4    9   10    2    8    7
         2     4       3    4    8    8    1    7    7
         3     9       3    3    5    7    1    6    5
  4      1     2       6    4    9    8    9    8    8
         2     8       5    4    9    7    8    6    7
         3     9       4    3    8    3    8    5    7
  5      1     5       8    7    8   10    6    2    8
         2     7       7    7    8    9    3    2    7
         3     8       4    6    7    9    2    1    4
  6      1     6       6    9    8   10    3    5    4
         2     6       6    7    7   10    5    6    4
         3     9       6    4    5    7    1    5    4
  7      1     8       4    8    8    6    4    4    5
         2     8       3    7    8    8    4    4    5
         3     9       1    7    8    4    2    4    5
  8      1     2       7    6   10    4    7    9    7
         2     6       5    6   10    4    7    8    7
         3     7       4    6    9    4    6    8    7
  9      1     2       7    5    5    8    4    9    4
         2     4       6    2    2    7    4    9    4
         3     5       4    2    2    6    4    8    3
 10      1     2       6    7    6    5    6    3    8
         2     4       5    3    5    1    6    2    8
         3     4       6    2    3    1    6    3    8
 11      1     4       6    6    5   10    7    4    5
         2     4       5    7    7    9    7    3    4
         3     6       5    3    3    9    7    2    2
 12      1     7       8    4    9    7    2    6    6
         2     8       6    4    6    7    2    5    5
         3     9       6    4    1    7    1    3    3
 13      1     2       9    8    5    8    4    7    7
         2     2       7    8    5    5    4    9    7
         3     4       7    7    3    1    3    2    6
 14      1     1       4   10    6    9    5    5   10
         2     2       3   10    6    9    4    5    9
         3     5       3    9    6    9    4    5    9
 15      1     2       5    9    8    2    5    6    4
         2     5       4    7    7    2    4    6    4
         3     7       3    2    3    1    4    4    3
 16      1     4       9   10    7    6    4    9    3
         2     6       4    6    4    3    4    9    3
         3     6       5    8    5    3    3    9    3
 17      1     4       8    9    2    2    9    3    2
         2     5       6    9    2    2    5    2    2
         3    10       2    7    2    2    5    1    2
 18      1     0       0    0    0    0    0    0    0
************************************************************************
RESOURCEAVAILABILITIES:
  R 1  R 2  R 3  R 4  R 5  N 1  N 2
   23   20   26   24   18   99   92
************************************************************************
